(set-logic BV) (define-fun origCir ((n154 Bool) (n325 Bool) (n254 Bool) (n207 Bool) (i44 Bool)) Bool (xor (and (xor n325 (not (and n254 n207))) n154) i44)) (synth-fun skel ((n154 Bool) (n325 Bool) (n254 Bool) (n207 Bool) (i44 Bool)) Bool) (declare-var n154 Bool) (declare-var n325 Bool) (declare-var n254 Bool) (declare-var n207 Bool) (declare-var i44 Bool) (constraint (= (origCir n154 n325 n254 n207 i44) (skel n154 n325 n254 n207 i44))) (check-synth)
